12 30
1 2 0
1 3 1
1 4 0
1 5 0
1 6 0
1 7 0
1 8 0
1 9 0
1 10 1
1 11 0
1 12 1
2 3 1
2 4 0
2 5 0
2 6 0
2 7 1
2 8 0
2 9 1
2 10 0
2 11 1
2 12 1
3 4 1
3 5 0
3 6 1
3 7 0
3 8 1
3 9 1
3 10 0
3 11 1
3 12 1
4 5 0
4 6 1
4 7 1
4 8 0
4 9 0
4 10 0
4 11 0
4 12 0
5 6 0
5 7 1
5 8 1
5 9 1
5 10 0
5 11 1
5 12 0
6 7 1
6 8 0
6 9 0
6 10 1
6 11 0
6 12 0
7 8 0
7 9 1
7 10 1
7 11 1
7 12 0
8 9 0
8 10 1
8 11 0
8 12 0
9 10 1
9 11 0
9 12 1
10 11 1
10 12 1
11 12 0
